\ Model RMP_EVSP
\ LP format - for model browsing. Use MPS format to capture full model detail.
\ Signature: 0xd246a97e64e07421
Minimize
  1e+09 q_0 + 1e+09 q_1 + 1e+09 q_2 + 1e+09 q_3 + 1e+09 q_4 + 1e+09 q_5
   + 1e+09 q_6 + 1e+09 q_7 + 1e+09 q_8 + 1e+09 q_9 + 1e+09 q_10
   + 1e+09 q_11 + 1e+09 q_12 + 1e+09 q_13 + 1e+09 q_14 + 30151.5 a[0]
   + 30212.1 a[1] + 30121.2 a[2] + 30181.8 a[3] + 30151.5 a[4]
   + 30212.1 a[5] + 30000 a[6] + 30090.9 a[7] + 30000 a[8] + 30060.6 a[9]
   + 30000 a[10] + 30151.5 a[11] + 30181.8 a[12] + 30151.5 a[13]
   + 30181.8 a[14] + 30121.2 a[15] + 30000 a[16] + 30000 a[17]
   + 30060.6 a[18] + 30181.8 a[19] + 30000 a[20] + 30030.3 a[21]
   + 30030.3 a[22] + 30121.2 a[23] + 30000 a[24] + 30000 a[25]
   + 30000 a[26] + 30000 a[27] + 30000 a[28] + 30030.3 a[29] + 30000 a[30]
   + 30030.3 a[31] + 30000 a[32] + 30030.3 a[33] + 30121.2 a[34]
   + 30151.5 a[35] + 30000 a[36] + 30030.3 a[37] + 30151.5 a[38]
   + 30090.9 a[39] + 30090.9 a[40] + 30090.9 a[41] + 30121.2 a[42]
   + 30151.5 a[43] + 30090.9 a[44] + 30121.2 a[45] + 30121.2 a[46]
   + 30121.2 a[47] + 30121.2 a[48] + 30121.2 a[49] + 30090.9 a[50]
   + 30090.9 a[51] + 30090.9 a[52] + 30060.6 a[53] + 30121.2 a[54]
   + 30181.8 a[55] + 30000 a[56] + 30090.9 a[57] + 30000 a[58]
   + 30000 a[59] + 30030.3 a[60] + 30000 a[61] + 30000 a[62]
   + 30030.3 a[63] + 30000 a[64] + 30000 a[65] + 30030.3 a[66]
   + 30030.3 a[67] + 30242.4 a[68] + 30030.3 a[69] + 30030.3 a[70]
   + 30030.3 a[71] + 30030.3 a[72] + 30000 a[73] + 30060.6 a[74]
   + 30090.9 a[75] + 30060.6 a[76] + 30121.2 a[77] + 30000 a[78]
   + 30151.5 a[79] + 30121.2 a[80] + 30090.9 a[81] + 30121.2 a[82]
   + 30151.5 a[83] + 30181.8 a[84] + 30151.5 a[85] + 30090.9 a[86]
   + 30121.2 a[87] + 30212.1 a[88] + 30121.2 a[89] + 30090.9 a[90]
   + 30121.2 a[91] + 30121.2 a[92] + 30151.5 a[93] + 30212.1 a[94]
   + 30090.9 a[95] + 30030.3 a[96] + 30060.6 a[97] + 30030.3 a[98]
   + 30151.5 a[99] + 30121.2 a[100] + 30151.5 a[101] + 30151.5 a[102]
   + 30121.2 a[103] + 30151.5 a[104] + 30151.5 a[105] + 30151.5 a[106]
   + 30090.9 a[107] + 30121.2 a[108] + 30181.8 a[109] + 30121.2 a[110]
   + 30000 a[111] + 30181.8 a[112] + 30151.5 a[113] + 30090.9 a[114]
   + 30090.9 a[115] + 30151.5 a[116] + 30090.9 a[117] + 30151.5 a[118]
   + 30121.2 a[119] + 30060.6 a[120] + 30121.2 a[121] + 30121.2 a[122]
   + 30121.2 a[123] + 30121.2 a[124] + 30151.5 a[125] + 30121.2 a[126]
   + 30000 a[127] + 30000 a[128] + 30151.5 a[129] + 30030.3 a[130]
   + 30030.3 a[131] + 30000 a[132] + 30000 a[133] + 30000 a[134]
   + 30000 a[135] + 30030.3 a[136] + 30000 a[137] + 30000 a[138]
   + 30151.5 a[139] + 30151.5 a[140] + 30000 a[141] + 30272.7 a[142]
   + 30212.1 a[143] + 30121.2 a[144] + 30121.2 a[145] + 30030.3 a[146]
   + 30030.3 a[147] + 30000 a[148] + 30121.2 a[149] + 30121.2 a[150]
   + 30060.6 a[151]
Subject To
 trip_coverage_0: q_0 + a[0] + a[1] + a[2] + a[3] + a[4] + a[5] + a[6]
   + a[7] + a[8] + a[10] + a[14] + a[16] + a[20] + a[21] + a[22] + a[23]
   + a[24] + a[26] + a[27] + a[28] + a[53] + a[55] + a[57] + a[60] + a[61]
   + a[62] + a[79] + a[80] + a[81] + a[82] + a[83] + a[84] + a[85] + a[87]
   + a[88] + a[89] + a[91] + a[92] + a[93] + a[94] + a[95] + a[97] + a[98]
   + a[112] + a[114] + a[115] + a[116] + a[117] + a[118] + a[119] + a[120]
   + a[121] + a[122] + a[125] + a[126] + a[127] + a[128] + a[142] + a[143]
   + a[144] + a[149] + a[150] >= 1
 trip_coverage_1: q_1 + a[0] + a[1] + a[2] + a[3] + a[4] + a[5] + a[6]
   + a[7] + a[8] + a[13] + a[14] + a[19] + a[25] + a[34] + a[37] + a[38]
   + a[39] + a[60] + a[87] + a[97] + a[98] + a[99] + a[100] + a[101]
   + a[102] + a[103] + a[104] + a[105] + a[114] + a[115] + a[116] + a[117]
   + a[118] + a[119] + a[120] + a[121] + a[124] + a[125] + a[126] + a[136]
   + a[142] + a[143] + a[144] + a[145] + a[150] >= 1
 trip_coverage_2: q_2 + a[6] + a[7] + a[8] + a[10] + a[13] + a[14] + a[18]
   + a[22] + a[26] + a[29] + a[40] + a[42] + a[43] + a[44] + a[45] + a[46]
   + a[47] + a[48] + a[49] + a[50] + a[51] + a[52] + a[53] + a[55] + a[56]
   + a[58] + a[59] + a[60] + a[61] + a[62] + a[63] + a[64] + a[66] + a[68]
   + a[69] + a[70] + a[71] + a[72] + a[73] + a[75] + a[76] + a[77] + a[78]
   + a[86] + a[87] + a[90] + a[97] + a[98] + a[99] + a[100] + a[101]
   + a[102] + a[103] + a[104] + a[105] + a[106] + a[107] + a[108] + a[110]
   + a[114] + a[115] + a[117] + a[121] + a[123] + a[124] + a[125] + a[126]
   + a[146] + a[147] + a[148] + a[149] + a[150] + a[151] >= 1
 trip_coverage_3: q_3 + a[6] + a[7] + a[8] + a[10] + a[16] + a[29] + a[30]
   + a[31] + a[32] + a[33] + a[35] + a[36] + a[41] + a[42] + a[43] + a[44]
   + a[45] + a[46] + a[47] + a[48] + a[49] + a[50] + a[52] + a[54] + a[56]
   + a[58] + a[60] + a[61] + a[70] + a[71] + a[73] + a[74] + a[77] + a[97]
   + a[98] + a[99] + a[100] + a[101] + a[102] + a[103] + a[104] + a[105]
   + a[106] + a[107] + a[108] + a[111] + a[112] + a[113] + a[121] + a[122]
   + a[123] + a[124] + a[125] + a[126] + a[127] + a[128] + a[129] + a[130]
   + a[131] + a[134] + a[146] + a[147] + a[148] >= 1
 trip_coverage_4: q_4 + a[6] + a[10] + a[17] + a[30] + a[31] + a[32]
   + a[33] + a[34] + a[36] + a[37] + a[50] + a[54] + a[60] + a[65] + a[66]
   + a[69] + a[70] + a[71] + a[72] + a[73] + a[74] + a[79] + a[84] + a[85]
   + a[88] + a[92] + a[93] + a[94] + a[98] + a[99] + a[100] + a[101]
   + a[102] + a[103] + a[104] + a[105] + a[106] + a[107] + a[108] + a[109]
   + a[112] + a[113] + a[127] + a[128] + a[129] + a[130] + a[131] + a[132]
   + a[133] + a[134] + a[135] + a[136] + a[137] >= 1
 trip_coverage_5: q_5 + a[17] + a[18] + a[30] + a[31] + a[36] + a[50]
   + a[52] + a[53] + a[57] + a[60] + a[62] + a[76] + a[80] + a[81] + a[82]
   + a[83] + a[84] + a[85] + a[89] + a[91] + a[98] + a[99] + a[100]
   + a[101] + a[102] + a[103] + a[105] + a[106] + a[107] + a[108] + a[109]
   + a[112] + a[113] + a[127] + a[128] + a[134] + a[136] + a[137] + a[138]
   + a[139] + a[140] + a[141] >= 1
 trip_coverage_6: q_6 + a[8] + a[16] + a[25] + a[30] + a[31] + a[32]
   + a[35] + a[36] + a[38] + a[39] + a[40] + a[50] + a[52] + a[53] + a[57]
   + a[58] + a[67] + a[68] + a[75] + a[76] + a[78] + a[80] + a[81] + a[82]
   + a[83] + a[84] + a[85] + a[86] + a[88] + a[89] + a[90] + a[91] + a[94]
   + a[97] + a[99] + a[100] + a[106] + a[108] + a[109] + a[111] + a[112]
   + a[113] + a[134] + a[138] + a[139] + a[140] + a[141] + a[146] + a[147]
   + a[148] + a[151] >= 1
 trip_coverage_7: q_7 + a[1] + a[5] + a[6] + a[8] + a[10] + a[11] + a[12]
   + a[13] + a[15] + a[18] + a[21] + a[26] + a[35] + a[57] + a[63] + a[64]
   + a[65] + a[66] + a[67] + a[68] + a[74] + a[77] + a[78] + a[79] + a[80]
   + a[81] + a[82] + a[83] + a[84] + a[85] + a[86] + a[88] + a[91] + a[96]
   + a[104] + a[109] + a[110] + a[111] + a[114] + a[115] + a[116] + a[117]
   + a[118] + a[119] + a[120] + a[129] + a[130] + a[131] + a[132] + a[133]
   + a[135] + a[138] + a[139] + a[140] + a[141] + a[142] + a[143] + a[144]
   + a[145] + a[146] + a[147] + a[148] + a[151] >= 1
 trip_coverage_8: q_8 + a[0] + a[2] + a[3] + a[4] + a[9] + a[11] + a[12]
   + a[13] + a[14] + a[15] + a[17] + a[19] + a[20] + a[21] + a[24] + a[34]
   + a[35] + a[41] + a[42] + a[43] + a[44] + a[45] + a[46] + a[47] + a[48]
   + a[49] + a[51] + a[54] + a[55] + a[57] + a[61] + a[63] + a[64] + a[65]
   + a[67] + a[74] + a[78] + a[79] + a[80] + a[81] + a[82] + a[83] + a[84]
   + a[85] + a[86] + a[87] + a[88] + a[90] + a[91] + a[92] + a[93] + a[94]
   + a[95] + a[96] + a[101] + a[102] + a[103] + a[104] + a[105] + a[107]
   + a[109] + a[111] + a[114] + a[115] + a[116] + a[118] + a[119] + a[120]
   + a[128] + a[129] + a[130] + a[131] + a[132] + a[133] + a[135] + a[136]
   + a[137] + a[138] + a[139] + a[140] + a[141] + a[142] + a[143] + a[144]
   + a[145] + a[146] + a[147] + a[148] + a[149] + a[150] + a[151] >= 1
 trip_coverage_9: q_9 + a[0] + a[2] + a[4] + a[7] + a[9] + a[11] + a[19]
   + a[24] + a[25] + a[30] + a[31] + a[32] + a[33] + a[34] + a[36] + a[37]
   + a[38] + a[39] + a[40] + a[61] + a[63] + a[64] + a[65] + a[67] + a[68]
   + a[69] + a[70] + a[71] + a[72] + a[73] + a[74] + a[75] + a[79] + a[114]
   + a[115] + a[116] + a[117] + a[118] + a[119] + a[120] + a[121] + a[122]
   + a[123] + a[124] + a[125] + a[126] + a[128] + a[133] + a[138] + a[139]
   + a[140] + a[141] + a[142] + a[143] + a[144] + a[145] + a[146] + a[147]
   + a[148] + a[149] + a[150] >= 1
 trip_coverage_10: q_10 + a[0] + a[1] + a[2] + a[3] + a[5] + a[7] + a[9]
   + a[11] + a[12] + a[15] + a[19] + a[20] + a[21] + a[23] + a[24] + a[36]
   + a[37] + a[42] + a[43] + a[44] + a[45] + a[46] + a[50] + a[52] + a[53]
   + a[54] + a[55] + a[62] + a[110] + a[116] + a[121] + a[122] + a[123]
   + a[124] + a[127] + a[133] + a[140] + a[141] + a[142] + a[143] + a[144]
   + a[145] + a[149] + a[150] >= 1
 trip_coverage_11: q_11 + a[0] + a[1] + a[2] + a[3] + a[4] + a[5] + a[9]
   + a[12] + a[13] + a[14] + a[15] + a[16] + a[17] + a[22] + a[41] + a[46]
   + a[55] + a[76] + a[77] + a[80] + a[81] + a[82] + a[83] + a[86] + a[87]
   + a[89] + a[90] + a[92] + a[93] + a[95] + a[96] + a[97] + a[108]
   + a[110] + a[116] + a[121] + a[122] + a[123] + a[124] + a[127] + a[129]
   + a[130] + a[131] + a[132] + a[133] + a[134] + a[135] + a[136] + a[137]
   + a[142] + a[143] + a[144] + a[145] + a[149] + a[150] + a[151] >= 1
 trip_coverage_12: q_12 + a[0] + a[1] + a[2] + a[3] + a[4] + a[5] + a[9]
   + a[12] + a[15] + a[17] + a[22] + a[23] + a[38] + a[42] + a[43] + a[44]
   + a[45] + a[46] + a[47] + a[48] + a[49] + a[51] + a[56] + a[57] + a[59]
   + a[63] + a[64] + a[65] + a[66] + a[67] + a[69] + a[70] + a[71] + a[72]
   + a[73] + a[74] + a[75] + a[76] + a[77] + a[95] + a[110] + a[114]
   + a[118] + a[119] + a[120] + a[121] + a[122] + a[123] + a[124] + a[125]
   + a[126] + a[129] + a[130] + a[131] + a[132] + a[134] + a[135] + a[136]
   + a[137] + a[138] + a[139] + a[142] + a[143] + a[144] + a[145] + a[149]
   + a[150] + a[151] >= 1
 trip_coverage_13: q_13 + a[0] + a[1] + a[2] + a[3] + a[4] + a[9] + a[11]
   + a[16] + a[18] + a[19] + a[20] + a[23] + a[28] + a[35] + a[38] + a[47]
   + a[49] + a[51] + a[58] + a[63] + a[64] + a[65] + a[66] + a[67] + a[68]
   + a[69] + a[70] + a[71] + a[72] + a[73] + a[75] + a[87] + a[89] + a[93]
   + a[95] + a[96] + a[99] + a[100] + a[101] + a[102] + a[103] + a[104]
   + a[106] + a[107] + a[109] + a[110] + a[111] + a[112] + a[113] + a[122]
   + a[123] + a[124] + a[125] + a[126] + a[132] + a[137] >= 1
 trip_coverage_14: q_14 + a[1] + a[5] + a[18] + a[27] + a[30] + a[31]
   + a[32] + a[33] + a[34] + a[35] + a[37] + a[38] + a[39] + a[40] + a[41]
   + a[47] + a[48] + a[49] + a[51] + a[54] + a[56] + a[58] + a[59] + a[80]
   + a[81] + a[82] + a[83] + a[84] + a[85] + a[86] + a[87] + a[88] + a[89]
   + a[90] + a[91] + a[92] + a[94] + a[95] + a[96] + a[99] + a[100]
   + a[105] + a[106] + a[110] + a[111] + a[112] + a[113] + a[115] + a[116]
   + a[117] + a[118] + a[119] + a[122] + a[123] + a[125] + a[126] >= 1
Bounds
 a[0] <= 1
 a[1] <= 1
 a[2] <= 1
 a[3] <= 1
 a[4] <= 1
 a[5] <= 1
 a[6] <= 1
 a[7] <= 1
 a[8] <= 1
 a[9] <= 1
 a[10] <= 1
 a[11] <= 1
 a[12] <= 1
 a[13] <= 1
 a[14] <= 1
 a[15] <= 1
 a[16] <= 1
 a[17] <= 1
 a[18] <= 1
 a[19] <= 1
 a[20] <= 1
 a[21] <= 1
 a[22] <= 1
 a[23] <= 1
 a[24] <= 1
 a[25] <= 1
 a[26] <= 1
 a[27] <= 1
 a[28] <= 1
 a[29] <= 1
 a[30] <= 1
 a[31] <= 1
 a[32] <= 1
 a[33] <= 1
 a[34] <= 1
 a[35] <= 1
 a[36] <= 1
 a[37] <= 1
 a[38] <= 1
 a[39] <= 1
 a[40] <= 1
 a[41] <= 1
 a[42] <= 1
 a[43] <= 1
 a[44] <= 1
 a[45] <= 1
 a[46] <= 1
 a[47] <= 1
 a[48] <= 1
 a[49] <= 1
 a[50] <= 1
 a[51] <= 1
 a[52] <= 1
 a[53] <= 1
 a[54] <= 1
 a[55] <= 1
 a[56] <= 1
 a[57] <= 1
 a[58] <= 1
 a[59] <= 1
 a[60] <= 1
 a[61] <= 1
 a[62] <= 1
 a[63] <= 1
 a[64] <= 1
 a[65] <= 1
 a[66] <= 1
 a[67] <= 1
 a[68] <= 1
 a[69] <= 1
 a[70] <= 1
 a[71] <= 1
 a[72] <= 1
 a[73] <= 1
 a[74] <= 1
 a[75] <= 1
 a[76] <= 1
 a[77] <= 1
 a[78] <= 1
 a[79] <= 1
 a[80] <= 1
 a[81] <= 1
 a[82] <= 1
 a[83] <= 1
 a[84] <= 1
 a[85] <= 1
 a[86] <= 1
 a[87] <= 1
 a[88] <= 1
 a[89] <= 1
 a[90] <= 1
 a[91] <= 1
 a[92] <= 1
 a[93] <= 1
 a[94] <= 1
 a[95] <= 1
 a[96] <= 1
 a[97] <= 1
 a[98] <= 1
 a[99] <= 1
 a[100] <= 1
 a[101] <= 1
 a[102] <= 1
 a[103] <= 1
 a[104] <= 1
 a[105] <= 1
 a[106] <= 1
 a[107] <= 1
 a[108] <= 1
 a[109] <= 1
 a[110] <= 1
 a[111] <= 1
 a[112] <= 1
 a[113] <= 1
 a[114] <= 1
 a[115] <= 1
 a[116] <= 1
 a[117] <= 1
 a[118] <= 1
 a[119] <= 1
 a[120] <= 1
 a[121] <= 1
 a[122] <= 1
 a[123] <= 1
 a[124] <= 1
 a[125] <= 1
 a[126] <= 1
 a[127] <= 1
 a[128] <= 1
 a[129] <= 1
 a[130] <= 1
 a[131] <= 1
 a[132] <= 1
 a[133] <= 1
 a[134] <= 1
 a[135] <= 1
 a[136] <= 1
 a[137] <= 1
 a[138] <= 1
 a[139] <= 1
 a[140] <= 1
 a[141] <= 1
 a[142] <= 1
 a[143] <= 1
 a[144] <= 1
 a[145] <= 1
 a[146] <= 1
 a[147] <= 1
 a[148] <= 1
 a[149] <= 1
 a[150] <= 1
 a[151] <= 1
End
